NAME : instances/clustered-mixed-tsp/instance-31.tsp
COMMENT : No Comment
TYPE : TSP
DIMENSION: 46
EDGE_WEIGHT_TYPE : EUC_2D
NODE_COORD_SECTION
1 515 1679 
2 1927 943 
3 1183 562 
4 535 1649 
5 179 1241 
6 1819 933 
7 529 1582 
8 429 1642 
9 956 1150 
10 1108 500 
11 166 1258 
12 157 1333 
13 992 1073 
14 1449 157 
15 355 1640 
16 439 1946 
17 1836 872 
18 1941 974 
19 1073 613 
20 813 524 
21 329 641 
22 381 1565 
23 536 1692 
24 376 1614 
25 1066 1141 
26 1057 489 
27 174 1365 
28 407 641 
29 140 1232 
30 1790 953 
31 1936 813 
32 294 558 
33 519 1673 
34 1796 874 
35 435 1705 
36 1866 926 
37 276 633 
38 1954 892 
39 1161 547 
40 418 1643 
41 389 685 
42 495 1793 
43 826 613 
44 463 582 
45 315 616 
46 374 1633 
EOF
